Problem:    
Rows:       248
Columns:    89 (72 integer, 72 binary)
Non-zeros:  820
Status:     INTEGER OPTIMAL
Objective:  value = 24.313296 (MINimum)

   No.   Row name        Activity     Lower bound   Upper bound
------ ------------    ------------- ------------- -------------
     1 r.5                   524.313             0               
     2 r.6                  -496.422      -498.123               
     3 r.7                   24.3133             0               
     4 r.8                  -477.188      -491.851               
     5 r.9                   524.313             0               
     6 r.10                 -490.994      -497.844               
     7 r.11                  24.3133             0               
     8 r.12                 -468.498      -491.309               
     9 r.13                  524.313             0               
    10 r.14                 -488.089      -497.094               
    11 r.15                  24.3133             0               
    12 r.16                 -2.06256      -486.941               
    13 r.17                  524.313             0               
    14 r.18                 -493.151      -498.698               
    15 r.19                  24.3133             0               
    16 r.20                 -485.338      -492.818               
    17 r.21                  524.313             0               
    18 r.22                 -494.452       -498.03               
    19 r.23                  24.3133             0               
    20 r.24                   6.6143      -491.323               
    21 r.25                  524.313             0               
    22 r.26                 -480.844      -494.703               
    23 r.27                  24.3133             0               
    24 r.28                 -15.1219      -493.041               
    25 r.29                  524.313             0               
    26 r.30                 -475.687      -494.842               
    27 r.31                  24.3133             0               
    28 r.32                 -22.0805       -492.63               
    29 r.33                  524.313             0               
    30 r.34                 -499.897      -499.897               
    31 r.35                  24.3133             0               
    32 r.36                   0.1029      -496.471               
    33 r.37                        1             1             = 
    34 r.38                        1             1             = 
    35 r.39                        1             1             = 
    36 r.40                        1             1             = 
    37 r.41                        1             1             = 
    38 r.42                        1             1             = 
    39 r.43                        1             1             = 
    40 r.44                        1             1             = 
    41 r.45                  5.42763       2.15604               
    42 r.46                 -5.42763      -498.123               
    43 r.47                  8.69059       8.69059               
    44 r.48                 -8.69059      -491.851               
    45 r.49                  8.33345       2.90582               
    46 r.50                 -8.33345      -498.123               
    47 r.51                  475.126       13.0594               
    48 r.52                 -475.126      -491.851               
    49 r.53                  3.27159       1.30157               
    50 r.54                 -3.27159      -498.123               
    51 r.55                  491.851        7.1815               
    52 r.56                 -491.851      -491.851               
    53 r.57                  1.97001       1.97001               
    54 r.58                 -1.97001      -498.123               
    55 r.59                  483.803       8.67685               
    56 r.60                 -483.803      -491.851               
    57 r.61                 -484.422      -487.459               
    58 r.62                 -18.6998      -478.552               
    59 r.63                 -3.65581      -487.459               
    60 r.64                  462.066      -478.552               
    61 r.65                  20.7354        5.1575               
    62 r.66                 -20.7354      -498.123               
    63 r.67                  455.108       7.36995               
    64 r.68                 -455.108      -491.851               
    65 r.69                 -496.525      -496.623               
    66 r.70                 -477.291      -488.851               
    67 r.71                 -496.525      -496.623               
    68 r.72                 -477.291      -488.851               
    69 r.73                  494.572        1.8768               
    70 r.74                 -494.572      -497.844               
    71 r.75                  491.309       8.14921               
    72 r.76                 -491.309      -491.309               
    73 r.77                  2.90582       2.90582               
    74 r.78                 -2.90582      -497.844               
    75 r.79                  466.435       13.0594               
    76 r.80                 -466.435      -491.309               
    77 r.81                  497.844       1.30157               
    78 r.82                 -497.844      -497.844               
    79 r.83                   483.16        7.1815               
    80 r.84                  -483.16      -491.309               
    81 r.85                  496.542       1.97001               
    82 r.86                 -496.542      -497.844               
    83 r.87                  475.112       8.67685               
    84 r.88                 -475.112      -491.309               
    85 r.89                  10.1503       5.29706               
    86 r.90                 -10.1503      -497.844               
    87 r.91                  453.376       6.95862               
    88 r.92                 -453.376      -491.309               
    89 r.93                 -484.692      -487.598               
    90 r.94                 -31.0861      -478.141               
    91 r.95                  -7.1889      -487.598               
    92 r.96                  446.417      -478.141               
    93 r.97                 -491.097      -495.869               
    94 r.98                 -468.601      -487.359               
    95 r.99                 -491.097      -495.869               
    96 r.100                -468.601      -487.359               
    97 r.101                 491.667        1.8768               
    98 r.102                -491.667      -497.094               
    99 r.103                 24.8742       8.14921               
   100 r.104                -24.8742      -486.941               
   101 r.105                 497.094       2.15604               
   102 r.106                -497.094      -497.094               
   103 r.107                 33.5648       8.69059               
   104 r.108                -33.5648      -486.941               
   105 r.109                -494.938      -495.119               
   106 r.110                -8.91205      -482.991               
   107 r.111                -2.75105      -495.119               
   108 r.112                 483.275      -482.991               
   109 r.113                 493.637       1.97001               
   110 r.114                -493.637      -497.094               
   111 r.115                 8.67685       8.67685               
   112 r.116                -8.67685      -486.941               
   113 r.117                 7.24444       5.29706               
   114 r.118                -7.24444      -497.094               
   115 r.119                 486.941       6.95862               
   116 r.120                -486.941      -486.941               
   117 r.121                -487.598      -487.598               
   118 r.122                -33.9919      -478.141               
   119 r.123                -473.624      -487.598               
   120 r.124                 -20.018      -478.141               
   121 r.125                -488.192      -495.119               
   122 r.126                -2.16546      -482.991               
   123 r.127                -488.192      -495.119               
   124 r.128                -2.16546      -482.991               
   125 r.129                 496.728        1.8768               
   126 r.130                -496.728      -498.698               
   127 r.131                 8.14921       8.14921               
   128 r.132                -8.14921      -492.818               
   129 r.133                 2.15604       2.15604               
   130 r.134                -2.15604      -498.698               
   131 r.135                 16.8398       8.69059               
   132 r.136                -16.8398      -492.818               
   133 r.137                -494.938      -495.119               
   134 r.138                -8.91205      -482.991               
   135 r.139                -2.75105      -495.119               
   136 r.140                 483.275      -482.991               
   137 r.141                 498.698       1.97001               
   138 r.142                -498.698      -498.698               
   139 r.143                 491.952       8.67685               
   140 r.144                -491.952      -492.818               
   141 r.145                 12.3063       5.29706               
   142 r.146                -12.3063      -498.698               
   143 r.147                 470.216       6.95862               
   144 r.148                -470.216      -492.818               
   145 r.149                -482.536      -487.598               
   146 r.150                  -28.93      -478.141               
   147 r.151                  9.6509      -487.598               
   148 r.152                 463.257      -478.141               
   149 r.153                -493.253      -495.009               
   150 r.154                 -485.44       -485.44               
   151 r.155                -493.253      -495.009               
   152 r.156                 -485.44       -485.44               
   153 r.157                  498.03        1.8768               
   154 r.158                 -498.03       -498.03               
   155 r.159                 16.1973       8.14921               
   156 r.160                -16.1973      -491.323               
   157 r.161                 3.45762       2.15604               
   158 r.162                -3.45762       -498.03               
   159 r.163                 24.8879       8.69059               
   160 r.164                -24.8879      -491.323               
   161 r.165                 6.36344       2.90582               
   162 r.166                -6.36344       -498.03               
   163 r.167                 491.323       13.0594               
   164 r.168                -491.323      -491.323               
   165 r.169                 1.30158       1.30157               
   166 r.170                -1.30158       -498.03               
   167 r.171                  8.0481        7.1815               
   168 r.172                 -8.0481      -491.323               
   169 r.173                -486.392      -487.459               
   170 r.174                -20.6698      -478.552               
   171 r.175                -487.459      -487.459               
   172 r.176                -21.7362      -478.552               
   173 r.177                -481.235      -487.598               
   174 r.178                -27.6284      -478.141               
   175 r.179                -482.301      -487.598               
   176 r.180                -28.6948      -478.141               
   177 r.181                -494.555      -494.555               
   178 r.182                  6.5114      -484.373               
   179 r.183                -494.555      -494.555               
   180 r.184                  6.5114      -484.373               
   181 r.185                -484.422      -487.459               
   182 r.186                -18.6998      -478.552               
   183 r.187                -3.65581      -487.459               
   184 r.188                 462.066      -478.552               
   185 r.189                  489.85       2.15604               
   186 r.190                 -489.85      -494.703               
   187 r.191                 46.6241       8.69059               
   188 r.192                -46.6241      -493.041               
   189 r.193                 492.756       2.90582               
   190 r.194                -492.756      -494.703               
   191 r.195                 13.0593       13.0594               
   192 r.196                -13.0593      -493.041               
   193 r.197                 487.694       1.30157               
   194 r.198                -487.694      -494.703               
   195 r.199                 29.7843        7.1815               
   196 r.200                -29.7843      -493.041               
   197 r.201                -486.392      -487.459               
   198 r.202                -20.6698      -478.552               
   199 r.203                -487.459      -487.459               
   200 r.204                -21.7362      -478.552               
   201 r.205                  5.1575        5.1575               
   202 r.206                 -5.1575      -494.703               
   203 r.207                 493.041       7.36995               
   204 r.208                -493.041      -493.041               
   205 r.209                 479.265        1.8768               
   206 r.210                -479.265      -494.842               
   207 r.211                 44.8921       8.14921               
   208 r.212                -44.8921       -492.63               
   209 r.213                -484.692      -487.598               
   210 r.214                -31.0861      -478.141               
   211 r.215                 -7.1889      -487.598               
   212 r.216                 446.417      -478.141               
   213 r.217                -487.598      -487.598               
   214 r.218                -33.9919      -478.141               
   215 r.219                -473.624      -487.598               
   216 r.220                 -20.018      -478.141               
   217 r.221                -482.536      -487.598               
   218 r.222                  -28.93      -478.141               
   219 r.223                  9.6509      -487.598               
   220 r.224                 463.257      -478.141               
   221 r.225                -481.235      -487.598               
   222 r.226                -27.6284      -478.141               
   223 r.227                -482.301      -487.598               
   224 r.228                -28.6948      -478.141               
   225 r.229                 494.842       5.29706               
   226 r.230                -494.842      -494.842               
   227 r.231                 6.95862       6.95862               
   228 r.232                -6.95862       -492.63               
   229 r.233                -496.525      -496.623               
   230 r.234                -477.291      -488.851               
   231 r.235                -496.525      -496.623               
   232 r.236                -477.291      -488.851               
   233 r.237                -491.097      -495.869               
   234 r.238                -468.601      -487.359               
   235 r.239                -491.097      -495.869               
   236 r.240                -468.601      -487.359               
   237 r.241                -488.192      -495.119               
   238 r.242                -2.16546      -482.991               
   239 r.243                -488.192      -495.119               
   240 r.244                -2.16546      -482.991               
   241 r.245                -493.253      -495.009               
   242 r.246                 -485.44       -485.44               
   243 r.247                -493.253      -495.009               
   244 r.248                 -485.44       -485.44               
   245 r.249                -494.555      -494.555               
   246 r.250                  6.5114      -484.373               
   247 r.251                -494.555      -494.555               
   248 r.252                  6.5114      -484.373               

   No. Column name       Activity     Lower bound   Upper bound
------ ------------    ------------- ------------- -------------
     1 tt                    24.3133             0               
     2 s_1_1        *              1             0             1 
     3 t_1_1                 20.7354             0               
     4 s_1_6        *              1             0             1 
     5 s_2_1        *              0             0             1 
     6 t_2_1                 501.502             0               
     7 s_2_6        *              0             0             1 
     8 s_1_2        *              1             0             1 
     9 t_1_2                 15.3078             0               
    10 s_1_7        *              1             0             1 
    11 s_2_2        *              0             0             1 
    12 t_2_2                 492.811             0               
    13 s_2_7        *              0             0             1 
    14 s_1_3        *              1             0             1 
    15 t_1_3                 12.4019             0               
    16 s_2_3        *              0             0             1 
    17 t_2_3                 26.3759             0               
    18 s_1_4        *              1             0             1 
    19 t_1_4                 17.4638             0               
    20 s_2_4        *              0             0             1 
    21 t_2_4                 509.651             0               
    22 s_1_5        *              1             0             1 
    23 t_1_5                 18.7654             0               
    24 s_2_5        *              0             0             1 
    25 t_2_5                  17.699             0               
    26 t_1_6                  5.1575             0               
    27 t_2_6                 39.4352             0               
    28 t_1_7                       0             0               
    29 t_2_7                 46.3938             0               
    30 s_1_8        *              1             0             1 
    31 t_1_8                 24.2104             0               
    32 s_2_8        *              0             0             1 
    33 t_2_8                 24.2104             0               
    34 u_1_1_2      *              0             0             1 
    35 u_2_1_2      *              0             0             1 
    36 u_1_1_3      *              0             0             1 
    37 u_2_1_3      *              0             0             1 
    38 u_1_1_4      *              0             0             1 
    39 u_2_1_4      *              1             0             1 
    40 u_1_1_5      *              0             0             1 
    41 u_2_1_5      *              0             0             1 
    42 u_1_1_7      *              0             0             1 
    43 u_2_1_7      *              0             0             1 
    44 u_1_2_1      *              1             0             1 
    45 u_2_2_1      *              1             0             1 
    46 u_1_2_3      *              0             0             1 
    47 u_2_2_3      *              0             0             1 
    48 u_1_2_4      *              1             0             1 
    49 u_2_2_4      *              1             0             1 
    50 u_1_2_5      *              1             0             1 
    51 u_2_2_5      *              0             0             1 
    52 u_1_2_6      *              0             0             1 
    53 u_2_2_6      *              0             0             1 
    54 u_1_3_1      *              1             0             1 
    55 u_2_3_1      *              1             0             1 
    56 u_1_3_2      *              1             0             1 
    57 u_2_3_2      *              1             0             1 
    58 u_1_3_5      *              1             0             1 
    59 u_2_3_5      *              0             0             1 
    60 u_1_3_6      *              0             0             1 
    61 u_2_3_6      *              1             0             1 
    62 u_1_4_1      *              1             0             1 
    63 u_2_4_1      *              0             0             1 
    64 u_1_4_2      *              0             0             1 
    65 u_2_4_2      *              0             0             1 
    66 u_1_4_5      *              1             0             1 
    67 u_2_4_5      *              0             0             1 
    68 u_1_4_6      *              0             0             1 
    69 u_2_4_6      *              0             0             1 
    70 u_1_5_1      *              1             0             1 
    71 u_2_5_1      *              1             0             1 
    72 u_1_5_2      *              0             0             1 
    73 u_2_5_2      *              1             0             1 
    74 u_1_5_3      *              0             0             1 
    75 u_2_5_3      *              1             0             1 
    76 u_1_5_4      *              0             0             1 
    77 u_2_5_4      *              1             0             1 
    78 u_1_6_2      *              1             0             1 
    79 u_2_6_2      *              1             0             1 
    80 u_1_6_3      *              1             0             1 
    81 u_2_6_3      *              0             0             1 
    82 u_1_6_4      *              1             0             1 
    83 u_2_6_4      *              1             0             1 
    84 u_1_6_7      *              0             0             1 
    85 u_2_6_7      *              1             0             1 
    86 u_1_7_1      *              1             0             1 
    87 u_2_7_1      *              1             0             1 
    88 u_1_7_6      *              1             0             1 
    89 u_2_7_6      *              0             0             1 

Integer feasibility conditions:

KKT.PE: max.abs.err = 1.14e-13 on row 10
        max.rel.err = 1.11e-16 on row 102
        High quality

KKT.PB: max.abs.err = 1.14e-13 on row 102
        max.rel.err = 2.76e-14 on row 73
        High quality

End of output
